ssat_solver_solve2
#level: 2
Abc_NtkNodeNum(s->pNtk): 454  , BDD limit: 10240
Build BDD success
level 1: 10 element
Exist
level 0: 10 element
Random
c ssat solving in ABC
#var: 20
s SATISFIABLE
  > Upper bound = 1.640625e-01
  > Lower bound = 1.640625e-01
FINISHED CPU 0.10 MEM 60432 MAXMEM 60432 STALE 0 MAXMEM_RSS 0
<time name="ALL">160</time>
real 0.30
user 0.21
sys 0.16
